
Log started (V22.1.1.0) Tue Dec 17 19:26:27 2024


Log started (V22.1.1.0) Tue Dec 17 19:27:08 2024

CPLEX Error  1436: Max or Min missing.
No file read.
No problem exists.

Log started (V22.1.1.0) Tue Dec 17 19:27:35 2024

CPLEX Error  1615: Line 206: Expected number, found 's'.
No file read.
No problem exists.

Log started (V22.1.1.0) Tue Dec 17 19:28:14 2024

CPLEX Error  1615: Line 206: Expected number, found 's'.
No file read.
No problem exists.

Log started (V22.1.1.0) Tue Dec 17 19:29:25 2024


Problem 'teste.lp' read.
Read time = 0.25 sec. (14.82 ticks)
Version identifier: 22.1.1.0 | 2022-11-27 | 9160aff4d
Tried aggregator 4 times.
MIP Presolve eliminated 16086 rows and 28740 columns.
Aggregator did 419 substitutions.
Reduced MIP has 95939 rows, 122903 columns, and 296805 nonzeros.
Reduced MIP has 35952 binaries, 0 generals, 0 SOSs, and 0 indicators.
Presolve time = 0.67 sec. (396.23 ticks)
Found incumbent of value 2173.375038 after 0.83 sec. (487.94 ticks)
Probing time = 0.16 sec. (9.24 ticks)
Tried aggregator 3 times.
Detecting symmetries...
MIP Presolve eliminated 3472 rows and 5332 columns.
Aggregator did 16 substitutions.
Reduced MIP has 92451 rows, 117555 columns, and 285721 nonzeros.
Reduced MIP has 117555 binaries, 0 generals, 0 SOSs, and 0 indicators.
Presolve time = 0.72 sec. (675.69 ticks)
Probing time = 0.08 sec. (8.87 ticks)
Clique table members: 8368.
MIP emphasis: balance optimality and feasibility.
MIP search method: dynamic search.
Parallel mode: deterministic, using up to 8 threads.
Root relaxation solution time = 0.73 sec. (493.20 ticks)

        Nodes                                         Cuts/
   Node  Left     Objective  IInf  Best Integer    Best Bound    ItCnt     Gap

*     0+    0                         2172.8334        0.0000           100.00%
      0     0        0.0000 13176     2172.8334        0.0000     8259  100.00%
*     0+    0                         1677.3126        0.0000           100.00%
      0     0        0.0000 11535     1677.3126    Cuts: 4692    13087  100.00%
*     0+    0                         1364.0417        0.0000           100.00%
*     0+    0                         1100.7292        0.0000           100.00%
Advanced basis not built.

Zero-half cuts applied:  10876
Lift and project cuts applied:  5
Gomory fractional cuts applied:  202

Root node processing (before b&c):
  Real time             =   10.83 sec. (7817.18 ticks)
Parallel b&c, 8 threads:
  Real time             =    0.00 sec. (0.00 ticks)
  Sync time (average)   =    0.00 sec.
  Wait time (average)   =    0.00 sec.
                          ------------
Total (root+branch&cut) =   10.83 sec. (7817.18 ticks)

Solution pool: 6 solutions saved.

MIP - Aborted, integer feasible:  Objective =  1.1007291937e+03
Current MIP best bound =  0.0000000000e+00 (gap = 1100.73, 100.00%)
Solution time =   10.83 sec.  Iterations = 13087  Nodes = 0 (1)
Deterministic time = 7817.61 ticks  (721.98 ticks/sec)


Log started (V22.1.1.0) Tue Dec 17 19:29:46 2024

CPLEX Error  1615: Line 206: Expected number, found 's'.
No file read.
No problem exists.

Log started (V22.1.1.0) Tue Dec 17 20:10:14 2024

CPLEX Error  1621: Line 25197: No bound sense.
No file read.
No problem exists.

Log started (V22.1.1.0) Tue Dec 17 20:19:15 2024

Warning: 'End' missing.

Problem 'PSC1-C1-50.lp' read.
Read time = 0.02 sec. (1.80 ticks)
Version identifier: 22.1.1.0 | 2022-11-27 | 9160aff4d
Parallel mode: deterministic, using up to 8 threads for concurrent optimization:
 * Starting dual Simplex on 1 thread...
 * Starting Barrier on 6 threads...
 * Starting primal Simplex on 1 thread...
Tried aggregator 1 time.
LP Presolve eliminated 450 rows and 35150 columns.
All rows and columns eliminated.
Presolve time = 0.01 sec. (12.76 ticks)

Dual simplex solved model.


Dual simplex - Optimal:  Objective =  2.1881032499e+05
Solution time =    0.03 sec.  Iterations = 0 (0)
Deterministic time = 19.24 ticks  (620.73 ticks/sec)


Log started (V22.1.1.0) Tue Dec 17 20:39:51 2024


Problem 'PSC1-C1-50.lp' read.
Read time = 0.03 sec. (1.85 ticks)
Version identifier: 22.1.1.0 | 2022-11-27 | 9160aff4d
Tried aggregator 1 time.
MIP Presolve eliminated 0 rows and 10000 columns.
Reduced MIP has 450 rows, 25150 columns, and 60150 nonzeros.
Reduced MIP has 150 binaries, 0 generals, 0 SOSs, and 0 indicators.
Presolve time = 0.03 sec. (47.18 ticks)
Found incumbent of value 5.8976911e+07 after 0.08 sec. (74.62 ticks)
Tried aggregator 1 time.
Detecting symmetries...
MIP Presolve modified 100 coefficients.
Reduced MIP has 450 rows, 25150 columns, and 60150 nonzeros.
Reduced MIP has 150 binaries, 0 generals, 0 SOSs, and 0 indicators.
Presolve time = 0.05 sec. (43.69 ticks)
Probing time = 0.02 sec. (1.08 ticks)
MIP emphasis: balance optimality and feasibility.
MIP search method: dynamic search.
Parallel mode: deterministic, using up to 8 threads.
Root relaxation solution time = 0.09 sec. (58.44 ticks)

        Nodes                                         Cuts/
   Node  Left     Objective  IInf  Best Integer    Best Bound    ItCnt     Gap

*     0+    0                       5.89769e+07        0.0000           100.00%
*     0+    0                       235693.0000        0.0000           100.00%
*     0+    0                       234970.0000        0.0000           100.00%
*     0+    0                       234312.0000        0.0000           100.00%
      0     0   218859.9969    73   234312.0000   218859.9969     1310    6.59%
*     0+    0                       228331.0000   218859.9969             4.15%
*     0+    0                       224695.0000   218859.9969             2.60%
      0     0   218915.3122    93   224695.0000     Cuts: 212     1696    2.57%
*     0+    0                       224118.0000   218915.3122             2.32%
      0     0   218947.7542   105   224118.0000     Cuts: 212     2055    2.31%
      0     0   219002.0735   121   224118.0000     Cuts: 212     2365    2.28%
*     0+    0                       223972.0000   219002.0735             2.22%
      0     0  -1.00000e+75     0   223972.0000   219002.0735     2365    2.22%
*     0+    0                       223355.0000   219002.0735             1.95%
      0     0   219139.8830   119   223355.0000     Cuts: 212     2927    1.89%
*     0+    0                       223097.0000   219139.8830             1.77%
      0     0   219359.6507   123   223097.0000     Cuts: 212     3663    1.68%
Detecting symmetries...
*     0+    0                       223010.0000   219359.6507             1.64%
      0     0   219504.6785   117   223010.0000     Cuts: 212     4406    1.57%
*     0+    0                       222756.0000   219504.6785             1.46%
      0     0   219676.7171   122   222756.0000     Cuts: 212     5165    1.38%
      0     0   219799.1602   122   222756.0000     Cuts: 212     5858    1.33%
      0     0   219924.2455   128   222756.0000     Cuts: 212     6564    1.27%
*     0+    0                       222345.0000   219924.2455             1.09%
      0     0   220171.6364   110   222345.0000     Cuts: 212     7821    0.98%
      0     0   220252.3875   122   222345.0000     Cuts: 212     8592    0.94%
      0     0   220346.8538   110   222345.0000     Cuts: 212     9915    0.90%
      0     0   220471.2571   110   222345.0000     Cuts: 212    10861    0.84%
      0     0   220661.9881   104   222345.0000     Cuts: 212    12034    0.76%
      0     0   220761.4611   107   222345.0000     Cuts: 212    13071    0.71%
      0     0   220912.4219   101   222345.0000     Cuts: 212    14021    0.64%
      0     0   221017.8217   106   222345.0000     Cuts: 212    14773    0.60%
      0     0   221101.4842   106   222345.0000     Cuts: 212    15469    0.56%
      0     0   221229.4194    99   222345.0000     Cuts: 212    16346    0.50%
      0     0   221297.3210   105   222345.0000     Cuts: 212    17362    0.47%
      0     0   221334.1502   104   222345.0000     Cuts: 212    18014    0.45%
      0     0   221391.1479    93   222345.0000     Cuts: 212    18828    0.43%
      0     0   221458.5931   100   222345.0000     Cuts: 212    19712    0.40%
      0     0   221496.6997   101   222345.0000     Cuts: 212    20160    0.38%
Advanced basis not built.

Implied bound cuts applied:  1093
Flow cuts applied:  268
Mixed integer rounding cuts applied:  41
Gomory fractional cuts applied:  9

Root node processing (before b&c):
  Real time             =   22.73 sec. (13478.60 ticks)
Parallel b&c, 8 threads:
  Real time             =    0.00 sec. (0.00 ticks)
  Sync time (average)   =    0.00 sec.
  Wait time (average)   =    0.00 sec.
                          ------------
Total (root+branch&cut) =   22.73 sec. (13478.60 ticks)

Solution pool: 13 solutions saved.

MIP - Aborted, integer feasible:  Objective =  2.2234500000e+05
Current MIP best bound =  2.2149669972e+05 (gap = 848.3, 0.38%)
Solution time =   22.73 sec.  Iterations = 20160  Nodes = 0 (1)
Deterministic time = 13478.70 ticks  (592.89 ticks/sec)

